50
    57    86    45     9    54    18    72    74    59    22    43    24    78    40    47    50    10    35    14     6    41    82    14    15    49    72    59    61     4    12   100    99    65    26    29    47    82    51    79    87    96    42    25    69    37    68    79     9    29    15
     6     3     6     8     2     3     9     6     2     2    10     1     8     6     2     4     5     6     3     3     8     8     3     8    10     4     2    10     8     7     4     5     9     9     6     4     6     3     4     3     9    10     9     2     6     2     5     7     1    10
   926   330   819   602   792   635   784   432   711   352   450   641    32   180   840   586   451   359    39   456   795   273   610   644   875   457   328   652    74   292   549   364   243     9   770   853   489   299   310   900    60   492   497   652   762    87   643    47   312   734
